&control
    calculation = 'scf'
    prefix = 'tmp'
    tprnfor = .true.
    tstress = .true.
    pseudo_dir = './DATA/'
/
&system
    ibrav = 0
    nat = 1
    ntyp = 1
    ecutwfc = 2
    occupations = 'smearing'
    smearing = 'gaussian'
    degauss = 0.001
    nosym = .true.
/
&electrons
    conv_thr = 1e-8
    mixing_beta = 0.7
    electron_maxstep = 200
/
&IONS
/
&CELL
/
ATOMIC_SPECIES
Al      26.9815         Al_ONCV_PBE-1.2.upf

CELL_PARAMETERS (angstrom)
	    4.0500001907         0.0000000000         0.0000000000
        0.0000000000         4.0500001907         0.0000000000
        0.0000000000         0.0000000000         4.0500001907
ATOMIC_POSITIONS (angstrom)
 Al    0.000000000         0.000000000         0.000000000

K_POINTS (gamma)
