&CONTROL
   calculation = 'bands'
   prefix = 'tmp'
   pseudo_dir = './'
/

&SYSTEM
   ibrav = 0
   ecutwfc = 20
   ecutrho = 200
   nbnd = 6
   nat = 2
   ntyp = 1
/

&ELECTRONS
   conv_thr = 1e-08
/

&IONS
/

&CELL
/

&FCP
/

&RISM
/

ATOMIC_SPECIES
C 12.0107 C.pbe-rrkjus.UPF

K_POINTS crystal_b
61
0.0000000000 0.0000000000 0.0000000000 0.01639344262295082
0.0133333333 0.0133333333 0.0000000000 0.01639344262295082
0.0266666667 0.0266666667 0.0000000000 0.01639344262295082
0.0400000000 0.0400000000 0.0000000000 0.01639344262295082
0.0533333333 0.0533333333 0.0000000000 0.01639344262295082
0.0666666667 0.0666666667 0.0000000000 0.01639344262295082
0.0800000000 0.0800000000 0.0000000000 0.01639344262295082
0.0933333333 0.0933333333 0.0000000000 0.01639344262295082
0.1066666667 0.1066666667 0.0000000000 0.01639344262295082
0.1200000000 0.1200000000 0.0000000000 0.01639344262295082
0.1333333333 0.1333333333 0.0000000000 0.01639344262295082
0.1466666667 0.1466666667 0.0000000000 0.01639344262295082
0.1600000000 0.1600000000 0.0000000000 0.01639344262295082
0.1733333333 0.1733333333 0.0000000000 0.01639344262295082
0.1866666667 0.1866666667 0.0000000000 0.01639344262295082
0.2000000000 0.2000000000 0.0000000000 0.01639344262295082
0.2133333333 0.2133333333 0.0000000000 0.01639344262295082
0.2266666667 0.2266666667 0.0000000000 0.01639344262295082
0.2400000000 0.2400000000 0.0000000000 0.01639344262295082
0.2533333333 0.2533333333 0.0000000000 0.01639344262295082
0.2666666667 0.2666666667 0.0000000000 0.01639344262295082
0.2800000000 0.2800000000 0.0000000000 0.01639344262295082
0.2933333333 0.2933333333 0.0000000000 0.01639344262295082
0.3066666667 0.3066666667 0.0000000000 0.01639344262295082
0.3200000000 0.3200000000 0.0000000000 0.01639344262295082
0.3333333333 0.3333333333 0.0000000000 0.01639344262295082
0.3472222222 0.3055555556 0.0000000000 0.01639344262295082
0.3611111111 0.2777777778 0.0000000000 0.01639344262295082
0.3750000000 0.2500000000 0.0000000000 0.01639344262295082
0.3888888889 0.2222222222 0.0000000000 0.01639344262295082
0.4027777778 0.1944444444 0.0000000000 0.01639344262295082
0.4166666667 0.1666666667 0.0000000000 0.01639344262295082
0.4305555556 0.1388888889 0.0000000000 0.01639344262295082
0.4444444444 0.1111111111 0.0000000000 0.01639344262295082
0.4583333333 0.0833333333 0.0000000000 0.01639344262295082
0.4722222222 0.0555555556 0.0000000000 0.01639344262295082
0.4861111111 0.0277777778 0.0000000000 0.01639344262295082
0.5000000000 0.0000000000 0.0000000000 0.01639344262295082
0.4782608696 0.0000000000 0.0000000000 0.01639344262295082
0.4565217391 0.0000000000 0.0000000000 0.01639344262295082
0.4347826087 0.0000000000 0.0000000000 0.01639344262295082
0.4130434783 0.0000000000 0.0000000000 0.01639344262295082
0.3913043478 0.0000000000 0.0000000000 0.01639344262295082
0.3695652174 0.0000000000 0.0000000000 0.01639344262295082
0.3478260870 0.0000000000 0.0000000000 0.01639344262295082
0.3260869565 0.0000000000 0.0000000000 0.01639344262295082
0.3043478261 0.0000000000 0.0000000000 0.01639344262295082
0.2826086957 0.0000000000 0.0000000000 0.01639344262295082
0.2608695652 0.0000000000 0.0000000000 0.01639344262295082
0.2391304348 0.0000000000 0.0000000000 0.01639344262295082
0.2173913043 0.0000000000 0.0000000000 0.01639344262295082
0.1956521739 0.0000000000 0.0000000000 0.01639344262295082
0.1739130435 0.0000000000 0.0000000000 0.01639344262295082
0.1521739130 0.0000000000 0.0000000000 0.01639344262295082
0.1304347826 0.0000000000 0.0000000000 0.01639344262295082
0.1086956522 0.0000000000 0.0000000000 0.01639344262295082
0.0869565217 0.0000000000 0.0000000000 0.01639344262295082
0.0652173913 0.0000000000 0.0000000000 0.01639344262295082
0.0434782609 0.0000000000 0.0000000000 0.01639344262295082
0.0217391304 0.0000000000 0.0000000000 0.01639344262295082
0.0000000000 0.0000000000 0.0000000000 0.01639344262295082

CELL_PARAMETERS angstrom
2.46000000000000 0.00000000000000 0.00000000000000
-1.23000000000000 2.13042249330972 0.00000000000000
0.00000000000000 0.00000000000000 7.00000000000000

ATOMIC_POSITIONS angstrom
C    0.00000000000000 0.00000000000000 0.00000000000000
C    0.00000000000000 1.42028166220648 0.00000000000000

