&control
    calculation = 'vc-relax'
    prefix = 'tmp'
    pseudo_dir = '.'
    disk_io = 'none'
/
&system
    ibrav = 0
    nat = 4
    ntyp = 1
    ecutwfc = 80
    occupations = 'smearing'
    smearing = 'gaussian'
    degauss = 0.001
/
&electrons
    conv_thr = 1e-8
    mixing_beta = 0.7
    electron_maxstep = 200
/
&IONS
    ion_dynamics = 'bfgs'
/
&CELL
    cell_dofree = "all"
    cell_dynamics = "bfgs"
    press = 100.0
    press_conv_thr = 0.5
/
ATOMIC_SPECIES
Si      28.085        si_pbe_v1.uspp.F.UPF

CELL_PARAMETERS (angstrom)
		4.679238020     0.000000000     0.000000000
		0.000000000     4.679238020     0.000000000
		0.000000000     0.000000000     2.596680195
ATOMIC_POSITIONS (crystal)
Si 0.000000000     0.000000000     0.000000000
Si 0.500000000     0.000000000     0.750000000
Si 0.500000000     0.500000000     0.500000000
Si 0.000000000     0.500000000     0.250000000
K_POINTS (automatic)
5 5 10 0 0 0

